(set-logic QF_S)
(declare-fun var_0xINPUT_255665 () String)
(assert (and (not (= var_0xINPUT_255665 "3s71lxYG6e")) (= (len var_0xINPUT_255665) 0) (not (= var_0xINPUT_255665 "Example:")) (not (= var_0xINPUT_255665 "3s71lxYG6e"))))
(check-sat var_0xINPUT_255665)